computational_data/solutions/ER_n30_p020_s8.sol
Optimal - objective value 11.00000000
      1 r_1                         1                       1
      4 r_4                         1                       1
     13 r_13                        1                       1
     17 r_17                        1                       1
     20 r_20                        1                       1
     25 r_25                        1                       1
     40 b_10                        1                       1
     42 b_12                        1                       1
     51 b_21                        1                       1
     52 b_22                        1                       1
     57 b_27                        1                       1
