computational_data/logs/ER_n30_p020_s8.log
Welcome to the CBC MILP Solver 
Version: 2.10.12 
Build Date: Aug 20 2024 

command line - /opt/homebrew/bin/cbc computational_data/lp/ER_n30_p020_s8.lp seconds 10.0 solve solu computational_data/solutions/ER_n30_p020_s8.sol (default strategy 1)
seconds was changed from 1e+100 to 10
Continuous objective value is 9.16509 - 0.00 seconds
Cgl0003I 0 fixed, 0 tightened bounds, 45 strengthened rows, 0 substitutions
Cgl0003I 0 fixed, 0 tightened bounds, 41 strengthened rows, 0 substitutions
Cgl0003I 0 fixed, 0 tightened bounds, 28 strengthened rows, 0 substitutions
Cgl0003I 0 fixed, 0 tightened bounds, 4 strengthened rows, 0 substitutions
Cgl0003I 0 fixed, 0 tightened bounds, 5 strengthened rows, 0 substitutions
Cgl0004I processed model has 190 rows, 60 columns (60 integer (60 of which binary)) and 804 elements
Cutoff increment increased from 1e-05 to 0.9999
Cbc0038I Initial state - 33 integers unsatisfied sum - 9.16509
Cbc0038I Pass   1: suminf.    9.17241 (35) obj. 9.17241 iterations 4
Cbc0038I Pass   2: suminf.   11.50000 (23) obj. 11.5 iterations 46
Cbc0038I Pass   3: suminf.    0.00000 (0) obj. 14 iterations 48
Cbc0038I Solution found of 14
Cbc0038I Before mini branch and bound, 21 integers at bound fixed and 0 continuous
Cbc0038I Full problem 190 rows 60 columns, reduced to 133 rows 39 columns - 5 fixed gives 28, 12 - ok now
Cbc0038I Full problem 190 rows 60 columns, reduced to 4 rows 3 columns
Cbc0038I Mini branch and bound improved solution from 14 to 13 (0.01 seconds)
Cbc0038I Round again with cutoff of 11.7166
Cbc0038I Pass   4: suminf.    9.17241 (35) obj. 9.17241 iterations 0
Cbc0038I Pass   5: suminf.    8.64545 (29) obj. 9.75455 iterations 40
Cbc0038I Pass   6: suminf.    6.17105 (28) obj. 11.7166 iterations 43
Cbc0038I Pass   7: suminf.    2.03694 (29) obj. 11.7166 iterations 21
Cbc0038I Pass   8: suminf.    1.20445 (25) obj. 11.7166 iterations 20
Cbc0038I Pass   9: suminf.    2.48520 (28) obj. 11.7166 iterations 77
Cbc0038I Pass  10: suminf.    1.13360 (23) obj. 11.7166 iterations 54
Cbc0038I Pass  11: suminf.    1.92083 (23) obj. 11.7166 iterations 68
Cbc0038I Pass  12: suminf.    1.26784 (28) obj. 11.7166 iterations 27
Cbc0038I Pass  13: suminf.    7.34447 (23) obj. 11.7166 iterations 54
Cbc0038I Pass  14: suminf.    6.26670 (21) obj. 11.7166 iterations 29
Cbc0038I Pass  15: suminf.    6.26113 (21) obj. 11.7166 iterations 3
Cbc0038I Pass  16: suminf.    6.85020 (16) obj. 11.7166 iterations 50
Cbc0038I Pass  17: suminf.    4.33333 (13) obj. 11.6667 iterations 29
Cbc0038I Pass  18: suminf.    2.70850 (23) obj. 11.7166 iterations 64
Cbc0038I Pass  19: suminf.    1.10874 (28) obj. 11.7166 iterations 8
Cbc0038I Pass  20: suminf.    1.05791 (30) obj. 11.7166 iterations 8
Cbc0038I Pass  21: suminf.    8.23913 (31) obj. 11.0217 iterations 56
Cbc0038I Pass  22: suminf.    5.99460 (29) obj. 11.7166 iterations 21
Cbc0038I Pass  23: suminf.    1.27530 (20) obj. 11.7166 iterations 31
Cbc0038I Pass  24: suminf.    0.89555 (22) obj. 11.7166 iterations 18
Cbc0038I Pass  25: suminf.    4.65638 (25) obj. 11.7166 iterations 63
Cbc0038I Pass  26: suminf.    4.28340 (20) obj. 11.7166 iterations 29
Cbc0038I Pass  27: suminf.    4.08340 (20) obj. 11.7166 iterations 8
Cbc0038I Pass  28: suminf.    2.92847 (22) obj. 11.7166 iterations 57
Cbc0038I Pass  29: suminf.    0.85020 (3) obj. 11.7166 iterations 34
Cbc0038I Solution found of 11
Cbc0038I Before mini branch and bound, 5 integers at bound fixed and 0 continuous
Cbc0038I Full problem 190 rows 60 columns, reduced to 183 rows 55 columns - 1 fixed gives 165, 51 - still too large
Cbc0038I Mini branch and bound did not improve solution (0.02 seconds)
Cbc0038I Round again with cutoff of 9.8331
Cbc0038I Reduced cost fixing fixed 3 variables on major pass 3
Cbc0038I Pass  30: suminf.    9.17241 (35) obj. 9.17241 iterations 0
Cbc0038I Pass  31: suminf.    9.16690 (26) obj. 9.8331 iterations 32
Cbc0038I Pass  32: suminf.    7.78016 (30) obj. 9.59249 iterations 33
Cbc0038I Pass  33: suminf.    7.06615 (30) obj. 9.8331 iterations 22
Cbc0038I Pass  34: suminf.    8.36528 (28) obj. 9.8331 iterations 25
Cbc0038I Pass  35: suminf.    6.84238 (27) obj. 9.8331 iterations 19
Cbc0038I Pass  36: suminf.    6.78459 (29) obj. 9.8331 iterations 9
Cbc0038I Pass  37: suminf.    8.20503 (28) obj. 9.8331 iterations 29
Cbc0038I Pass  38: suminf.    7.16017 (27) obj. 9.8331 iterations 23
Cbc0038I Pass  39: suminf.    6.96690 (23) obj. 9.8331 iterations 9
Cbc0038I Pass  40: suminf.    7.50070 (19) obj. 9.8331 iterations 28
Cbc0038I Pass  41: suminf.    7.00466 (24) obj. 9.8331 iterations 12
Cbc0038I Pass  42: suminf.    6.57426 (25) obj. 9.8331 iterations 18
Cbc0038I Pass  43: suminf.    6.48185 (27) obj. 9.8331 iterations 12
Cbc0038I Pass  44: suminf.    7.83310 (17) obj. 9.8331 iterations 25
Cbc0038I Pass  45: suminf.    7.35606 (27) obj. 9.52273 iterations 30
Cbc0038I Pass  46: suminf.    6.67372 (25) obj. 9.8331 iterations 18
Cbc0038I Pass  47: suminf.    6.50035 (27) obj. 9.8331 iterations 14
Cbc0038I Pass  48: suminf.    8.40283 (28) obj. 9.8331 iterations 31
Cbc0038I Pass  49: suminf.    7.23215 (28) obj. 9.8331 iterations 34
Cbc0038I Pass  50: suminf.    6.78451 (32) obj. 9.8331 iterations 18
Cbc0038I Pass  51: suminf.    7.53122 (28) obj. 9.8331 iterations 33
Cbc0038I Pass  52: suminf.    6.33392 (30) obj. 9.8331 iterations 28
Cbc0038I Pass  53: suminf.    6.30306 (26) obj. 9.8331 iterations 6
Cbc0038I Pass  54: suminf.    7.36775 (26) obj. 9.8331 iterations 44
Cbc0038I Pass  55: suminf.    6.82048 (27) obj. 9.8331 iterations 16
Cbc0038I Pass  56: suminf.    6.80365 (28) obj. 9.8331 iterations 4
Cbc0038I Pass  57: suminf.    8.50000 (20) obj. 9.8331 iterations 33
Cbc0038I Pass  58: suminf.    7.35606 (27) obj. 9.52273 iterations 43
Cbc0038I Pass  59: suminf.    6.67372 (25) obj. 9.8331 iterations 17
Cbc0038I No solution found this major pass
Cbc0038I Before mini branch and bound, 7 integers at bound fixed and 0 continuous
Cbc0038I Full problem 190 rows 60 columns, reduced to 179 rows 53 columns - 1 fixed gives 161, 49 - still too large
Cbc0038I Mini branch and bound did not improve solution (0.03 seconds)
Cbc0038I After 0.03 seconds - Feasibility pump exiting with objective of 11 - took 0.02 seconds
Cbc0012I Integer solution of 11 found by feasibility pump after 0 iterations and 0 nodes (0.03 seconds)
Cbc0038I Full problem 190 rows 60 columns, reduced to 127 rows 36 columns
Cbc0031I 12 added rows had average density of 12.083333
Cbc0013I At root node, 30 cuts changed objective from 9.1650943 to 10.064046 in 24 passes
Cbc0014I Cut generator 0 (Probing) - 0 row cuts average 0.0 elements, 0 column cuts (0 active)  in 0.004 seconds - new frequency is -100
Cbc0014I Cut generator 1 (Gomory) - 688 row cuts average 54.1 elements, 0 column cuts (0 active)  in 0.006 seconds - new frequency is 1
Cbc0014I Cut generator 2 (Knapsack) - 0 row cuts average 0.0 elements, 0 column cuts (0 active)  in 0.002 seconds - new frequency is -100
Cbc0014I Cut generator 3 (Clique) - 0 row cuts average 0.0 elements, 0 column cuts (0 active)  in 0.001 seconds - new frequency is -100
Cbc0014I Cut generator 4 (MixedIntegerRounding2) - 0 row cuts average 0.0 elements, 0 column cuts (0 active)  in 0.004 seconds - new frequency is -100
Cbc0014I Cut generator 5 (FlowCover) - 0 row cuts average 0.0 elements, 0 column cuts (0 active)  in 0.000 seconds - new frequency is -100
Cbc0014I Cut generator 6 (TwoMirCuts) - 150 row cuts average 54.0 elements, 0 column cuts (0 active)  in 0.006 seconds - new frequency is -100
Cbc0014I Cut generator 7 (ZeroHalf) - 72 row cuts average 9.5 elements, 0 column cuts (0 active)  in 0.032 seconds - new frequency is 1
Cbc0001I Search completed - best objective 11, took 1078 iterations and 0 nodes (0.11 seconds)
Cbc0035I Maximum depth 0, 11 variables fixed on reduced cost
Cuts at root node changed objective from 9.16509 to 10.064
Probing was tried 24 times and created 0 cuts of which 0 were active after adding rounds of cuts (0.004 seconds)
Gomory was tried 24 times and created 688 cuts of which 0 were active after adding rounds of cuts (0.006 seconds)
Knapsack was tried 24 times and created 0 cuts of which 0 were active after adding rounds of cuts (0.002 seconds)
Clique was tried 24 times and created 0 cuts of which 0 were active after adding rounds of cuts (0.001 seconds)
MixedIntegerRounding2 was tried 24 times and created 0 cuts of which 0 were active after adding rounds of cuts (0.004 seconds)
FlowCover was tried 24 times and created 0 cuts of which 0 were active after adding rounds of cuts (0.000 seconds)
TwoMirCuts was tried 24 times and created 150 cuts of which 0 were active after adding rounds of cuts (0.006 seconds)
ZeroHalf was tried 24 times and created 72 cuts of which 0 were active after adding rounds of cuts (0.032 seconds)

Result - Optimal solution found

Objective value:                11.00000000
Enumerated nodes:               0
Total iterations:               1078
Time (CPU seconds):             0.11
Time (Wallclock seconds):       0.12

Total time (CPU seconds):       0.11   (Wallclock seconds):       0.12

